27515.0
19 74 73 72 105 104 89 90 59 61 63 75 76 109 154 165 116 164 153 152 151 6 5 4 49 50 51 86 55 14 12 52 124 123 121 122 100 41 81 83 47 46 85 57 58 60 18 16 40 39 38 36 35 10 136 135 172 111 147 156 166 133 119 79 37 80 97 171 173 138 137 88 103 112 168 169 31 118 26 24 25 54 53 157 161 134 142 132 131 67 65 91 115 155 127 126 125 20 2 1 0 11 87 102 101 7 8 9 93 107 106 92 108 94 120 139 145 144 143 167 159 158 113 170 141 140 95 77 42 43 82 44 45 48 22 3 28 29 30 27 68 69 70 71 66 21 62 23 64 56 99 98 146 114 130 129 128 78 32 33 34 96 84 160 163 162 148 117 174 150 149 110 13 15 17 